instances/p2/p2_2_20-0.txt
{
	"num_strings": 2,
	"alphabet": "ACGT",
	"strings": [
		"ACTGTCAC",
		"ATTACGGTTCATGA"
	],
	"str_length":[8,14]
}